$ HRM instance with in/out lengths = 20/10, seed = 10
language ESSENCE' 1.0
letting input=[34,21,14,11,7,17,38,9,22,15,4,20,32,9,16,1,7,34,14,39]
letting output=[14,10,16,9,16,10,15,11,9,11]
letting MAX_OPS=57
letting num_registers=1
